problems/csplib-prob015/SchursLemma-models/noch/O2/lingeling/model_1_4-7-14-solution000001.eprime-solution
language ESSENCE' 1.0

letting boxes_PartitionOccurrence_FirstIndex be [1, 2, 5, 6, 8, 11, 14; int(1..7)]
letting boxes_PartitionOccurrence_NumParts be 7
letting boxes_PartitionOccurrence_PartSizes be [3, 2, 5, 1, 1, 1, 1; int(1..7)]
letting boxes_PartitionOccurrence_WhichPart be [1, 2, 1, 2, 3, 4, 1, 5, 3, 3, 6, 3, 3, 7; int(1..14)]
