problems/csplib-prob015/SchursLemma-models/noch/O2/lingeling/model_1_4-7-14-solution000001.solution
language Essence 1.3

letting boxes be partition({1, 3, 7}, {2, 4}, {5, 9, 10, 12, 13}, {6}, {8}, {11}, {14})
